p cnf 20 20
1 -18 -3 0
-16 3 5 0
-10 -15 -17 0
-8 12 19 0
-8 -7 -11 0
15 10 -1 0
-12 -13 -16 0
-14 -11 -2 0
12 9 -14 0
2 -19 -20 0
-11 20 7 0
-14 11 -16 0
-13 -20 18 0
2 -12 7 0
-20 2 4 0
12 -15 -10 0
15 18 11 0
-18 -1 20 0
19 -18 -15 0
3 15 -4 0
